p cnf 13 82
-2 -3 0
-2 -4 0
-2 -5 0
-2 -6 0
-2 -7 0
-3 -4 0
-3 -5 0
-3 -6 0
-3 -7 0
-4 -5 0
-4 -6 0
-4 -7 0
-5 -6 0
-5 -7 0
-6 -7 0
-8 -9 0
-8 -10 0
-8 -11 0
-8 -12 0
-8 -13 0
-9 -10 0
-9 -11 0
-9 -12 0
-9 -13 0
-10 -11 0
-10 -12 0
-10 -13 0
-11 -12 0
-11 -13 0
-12 -13 0
-3 -2 0
-4 -2 0
-5 -2 0
-6 -2 0
-7 -2 0
-4 -3 0
-5 -3 0
-6 -3 0
-7 -3 0
-5 -4 0
-6 -4 0
-7 -4 0
-6 -5 0
-7 -5 0
-7 -6 0
-3 -8 0
-4 -8 0
-5 -8 0
-6 -8 0
-7 -8 0
-4 -9 0
-5 -9 0
-6 -9 0
-7 -9 0
-5 -10 0
-6 -10 0
-7 -10 0
-6 -11 0
-7 -11 0
-7 -12 0
-9 -8 0
-10 -8 0
-11 -8 0
-12 -8 0
-13 -8 0
-10 -9 0
-11 -9 0
-12 -9 0
-13 -9 0
-11 -10 0
-12 -10 0
-13 -10 0
-12 -11 0
-13 -11 0
-13 -12 0
-4 1 0
-10 1 0
3 9 0
-1 4 10 0
5 11 0
6 12 0
7 13 0
